output ([(((("\n"++problem_name)++"\n")++"L:")++show(L))++"\n"]++[if problem[i,j]==0 then "*" else show(letters[fix(L[problem[i,j]])]) endif++if j==cols then "\n" else "" endif | i in 1..rows, j in 1..cols, ])++["\n"];
int: rows = 15;
int: cols = 15;
array [1..rows,1..cols] of int: problem = [|1,2,3,4,0,5,6,7,8,9,0,10,11,12,13|14,15,16,17,0,18,19,20,21,22,0,23,24,25,26|27,28,29,30,0,31,32,33,34,35,0,36,37,38,39|40,41,42,43,44,0,45,46,47,0,0,48,49,50,51|0,0,0,0,52,53,54,0,0,55,56,57,0,0,0|58,59,60,0,61,62,63,0,64,65,66,0,67,68,69|70,71,72,73,0,74,75,76,77,78,79,80,81,82,83|84,85,86,87,0,0,88,89,90,0,0,91,92,93,94|95,96,97,98,99,100,101,102,103,104,0,105,106,107,108|109,110,111,0,112,113,114,0,115,116,117,0,118,119,120|0,0,0,121,122,123,0,0,124,125,126,0,0,0,0|127,128,129,130,0,0,131,132,133,0,134,135,136,137,138|139,140,141,142,0,143,144,145,146,147,0,148,149,150,151|152,153,154,155,0,156,157,158,159,160,0,161,162,163,164|165,166,167,168,0,169,170,171,172,173,0,174,175,176,177|];
int: num_letters = 26;
array [1..num_letters] of string: letters = ["a","b","c","d","e","f","g","h","i","j","k","l","m","n","o","p","q","r","s","t","u","v","w","x","y","z"];
int: N = 177;
array [0..N] of int: L;
string: problem_name = "puzzle18, 15 x 15";
